1984-05-23
1984-05-24
1984-06-27
1985-06-10
1985-06-11
1985-06-12
1985-11-21
1985-11-22
1988-04-19
1988-04-20
1988-04-21
1988-04-22
1988-04-23
1988-04-24
1988-04-25
1988-04-26
1988-04-27
1988-05-02
1988-05-05
1988-05-11
1988-05-24
1988-05-25
1988-05-26
1988-05-31
1988-06-01
1988-06-07
1988-06-08
1988-06-09
1988-06-10
1988-08-15
1988-08-16
1988-08-17
1988-08-18
1988-08-19
1988-08-20
1988-08-21
1988-08-22
1988-08-23
1988-08-24
1988-08-25
1988-08-26
1989-08-08
1989-08-09
1989-08-10
1989-08-11
1989-08-12
1989-08-13
1989-08-14
1989-08-15
1989-08-16
1989-08-17
1989-08-18
1989-08-19
1989-08-20
1989-08-21
1989-08-22
1989-08-23
1989-08-24
1995-12-13
1995-12-14
1995-12-15
1995-12-16
1995-12-17
1998-06-05
1998-06-06
1998-06-07
1998-06-08
1998-06-09
1998-06-10
1998-12-31
1999-01-02
1999-08-27
1999-08-28
1999-08-29
1999-08-30
1999-08-31
1999-09-01
1999-09-02
1999-09-03
1999-09-04
1999-09-05
1999-09-06
1999-09-07
1999-09-08
1999-11-13
2000-06-26
2000-06-27
2000-06-28
2000-06-29
2000-06-30
2000-10-31
2000-11-01
2000-11-02
2000-11-03
2000-11-04
2000-11-05
2000-11-06
2000-11-07
2000-11-08
2000-11-09
2000-11-10
2005-12-09
2005-12-12
2005-12-13
2005-12-14
2005-12-15
2005-12-16
2005-12-17
2008-05-27
2008-05-28
2008-05-29
2008-06-08
2008-06-09
2008-06-10
2008-06-11
2010-08-28
2010-08-29
2010-08-30
2010-08-31
2010-09-01
2010-09-02
2010-09-03
2010-10-18
2010-10-19
2010-10-20
2010-10-21
2010-10-22
2010-10-23
2010-10-27
2010-10-28
2010-11-02
2010-11-03
2010-11-04
2010-11-05
2010-11-06
2010-11-07
2010-11-08
2010-11-09
2010-11-10
2010-11-11
2010-11-12
2010-11-13
2010-12-10
2010-12-13
2011-02-21
2011-02-22
2011-02-23
2011-02-24
2011-02-25
2011-02-26
2011-02-27
2011-02-28
2011-03-01
2011-03-02
2011-03-03
2011-03-04
2011-03-05
2011-08-05
2011-08-06
2011-08-07
2011-08-08
2011-08-09
2011-08-10
2011-08-11
2011-08-12
2011-08-13
2011-08-14
2011-08-15
2011-08-16
2011-08-17
2011-08-18
2011-08-19
2011-08-20
2011-08-21
2011-08-22
2011-08-23
2011-08-24
